NAME: Tnm61
COMMENT: Recalculated optimal tour for Tnm61, using concorde got a tour of length 716131.0
TYPE: TOUR
DIMENSION: 61
TOUR_SECTION
1
42
39
36
33
30
27
24
21
50
53
56
59
60
61
58
55
52
49
18
15
12
9
6
3
41
38
43
46
35
32
29
26
23
20
17
14
11
57
54
51
48
8
5
2
45
40
37
34
31
28
25
22
19
16
13
10
7
4
47
44
-1
EOF
